
(set-logic ALL) 

(declare-datatype MyList ((Nil) (Cons (head Real) (tail MyList)) )) 
(declare-fun l0 () MyList) 
(declare-fun l1 () MyList) 
(declare-fun l2 () MyList) 
(declare-fun l3 () MyList) 
(declare-fun i0 () Real) 
(declare-fun i1 () Real) 
(assert (and (is-Nil Nil) (= l0 l0)) )
(assert (or (is-Cons l1) (= l0 Nil) (= l1 l2) (= l3 Nil)) )
(assert (or (= l2 Nil) (= l3 Nil) (= l1 Nil) (= l3 Nil)) )
(assert (is-Cons l2) )
(assert (is-Nil l3) )
(assert (or (= l2 Nil) (= l0 l1) (= l2 Nil)) )
(assert (not (= l3 l0)) )
(assert (not (is-Cons l1)) )
(check-sat)
